NAME : 02.txt
TYPE : TSP
DIMENSION : 51
EDGE_WEIGHT_TYPE : EUC_2D
NODE_COORD_SECTION
1 0 0
2 0 1
3 0 1
4 -1 2
5 -1 4
6 0 7
7 1 10
8 3 12
9 5 13
10 7 14
11 8 14
12 8 13
13 9 13
14 10 14
15 11 15
16 12 15
17 14 16
18 17 16
19 20 15
20 22 15
21 23 14
22 25 12
23 27 10
24 29 8
25 32 6
26 35 4
27 37 2
28 40 -1
29 44 -4
30 49 -8
31 53 -11
32 58 -14
33 63 -18
34 68 -22
35 72 -26
36 77 -29
37 81 -33
38 85 -37
39 88 -42
40 90 -48
41 92 -55
42 94 -61
43 95 -68
44 95 -76
45 94 -84
46 93 -93
47 92 -102
48 92 -112
49 92 -122
50 93 -131
51 94 -140
EOF
